c Random generated cnf formula, satisfiable: true
p cnf 10 50
7 4 -1 0
9 -3 8 0
-2 3 -9 0
-5 -4 8 0
5 -10 -7 0
-8 2 -10 0
-8 -7 1 0
-9 8 -5 0
-3 4 1 0
-10 5 4 0
-2 -9 4 0
-9 -6 7 0
7 -2 -9 0
5 7 -3 0
-7 3 8 0
5 1 -7 0
10 4 -9 0
-10 8 -5 0
8 -4 -3 0
9 -3 4 0
-1 -3 8 0
7 -10 -3 0
-8 -7 3 0
-1 -4 -2 0
-6 -4 10 0
-10 -4 -2 0
-5 -4 -10 0
5 3 2 0
8 -1 -10 0
-7 5 1 0
1 -8 10 0
-5 -7 -9 0
-9 -6 -1 0
-4 8 -7 0
-6 -5 -10 0
-3 -10 -6 0
-2 9 -8 0
8 -2 10 0
-10 6 8 0
5 -8 10 0
-9 2 -8 0
7 -6 5 0
-9 7 -10 0
-4 6 -9 0
1 -10 -7 0
-6 -8 9 0
2 -8 3 0
-10 6 -5 0
-6 -5 4 0
5 3 -9 0
